Set parameter TokenServer to value "hpc-licenses.hpcc.usc.edu"
Set parameter TimeLimit to value 3600
Gurobi Optimizer version 9.5.1 build v9.5.1rc2 (linux64)
Thread count: 20 physical cores, 20 logical processors, using up to 20 threads
Optimize a model with 6007 rows, 4529 columns and 24534 nonzeros
Model fingerprint: 0xfe221ff7
Variable types: 4506 continuous, 23 integer (23 binary)
Coefficient statistics:
  Matrix range     [1e+00, 1e+00]
  Objective range  [6e-05, 1e+00]
  Bounds range     [1e+00, 1e+00]
  RHS range        [1e+00, 1e+02]
Presolve removed 1520 rows and 1515 columns
Presolve time: 0.06s
Presolved: 4487 rows, 3014 columns, 21975 nonzeros
Variable types: 2994 continuous, 20 integer (20 binary)
Found heuristic solution: objective 224.1417109

Root relaxation: objective 2.336248e+02, 2674 iterations, 0.11 seconds (0.15 work units)

    Nodes    |    Current Node    |     Objective Bounds      |     Work
 Expl Unexpl |  Obj  Depth IntInf | Incumbent    BestBd   Gap | It/Node Time

     0     0  233.62480    0    2  224.14171  233.62480  4.23%     -    0s
H    0     0                     233.3468173  233.58576  0.10%     -    0s
     0     0  233.58576    0    4  233.34682  233.58576  0.10%     -    0s
     0     0  233.39064    0    4  233.34682  233.39064  0.02%     -    0s
     0     0     cutoff    0       233.34682  233.34682  0.00%     -    0s

Explored 1 nodes (5067 simplex iterations) in 0.91 seconds (0.77 work units)
Thread count was 20 (of 20 available processors)

Solution count 3: 233.347 225.441 224.142 

Optimal solution found (tolerance 1.00e-04)
Best objective 2.333468172785e+02, best bound 2.333468172785e+02, gap 0.0000%



#########node  1
V1.7
#########node  2
0.046052631578947366,0.9539473684210527
#########node  3
1.0,0.0


Total Solving Time 1.3188245296478271
obj value 233.34681727854084
Policy Regret train (Sum) 4.147362670960024
Best Treatment Found train (%) 70.19999999999999
treatment classification acc train (%) 65.8
Policy Regret test (Sum) 63.74597884426457
Best Treatment Found test (%) 73.06
treatment classification acc test (%) 65.24
